Co2 O2
   1.00000000000000     
     2.9001164947000002    0.5407275841000000   -0.2354304938000000
     0.5795694011000000    2.8933770576000000    0.2655481846000000
    -0.4861428858000000    0.4491679487000000    5.0654968001000000
   Co   O 
     2     2
Direct
  0.9976600546771589  0.0004534628250480  0.9995630508496057
  0.4994888676474606  0.5029032545205774  0.4995480032790661
  0.0647004875551205  0.5627445785209432  0.7502130610583222
  0.9363542201202660  0.4363377841334263  0.2498070248130160
 
  0.00000000E+00  0.00000000E+00  0.00000000E+00
  0.00000000E+00  0.00000000E+00  0.00000000E+00
  0.00000000E+00  0.00000000E+00  0.00000000E+00
  0.00000000E+00  0.00000000E+00  0.00000000E+00
