Co2 S2
   1.00000000000000     
     3.6034582796413099    0.0000000000000000    0.0000000000000000
    -1.8017291398206501    3.1206864116467399    0.0000000000000000
     0.0000000000000000    0.0000000000000000    5.5871377472453396
   Co   S 
     2     2
Direct
  0.0003948636714597  0.0002004461167324  0.9998657812231795
  0.0003622128793950  0.0001924298713813  0.4998623055869072
  0.3340717392118994  0.6670494315346850  0.2498417986271789
  0.6666415042372346  0.3333294824771960  0.7498676345627564
 
  0.00000000E+00  0.00000000E+00  0.00000000E+00
  0.00000000E+00  0.00000000E+00  0.00000000E+00
  0.00000000E+00  0.00000000E+00  0.00000000E+00
  0.00000000E+00  0.00000000E+00  0.00000000E+00
