Cr2 S2
   1.00000000000000     
    3.8954240265141475    0.8401364926182762   -0.4611967377079412
    0.8924024630399151    3.8782110073907359    0.5025274274534851
   -0.9191437351889972    0.8688503123119680    7.1497725592474461
   Cr   S 
     2     2
Direct
  0.9986371235189184  0.0003720537421540  0.9995498772952495
  0.4996878845821356  0.5015526078006305  0.4995495448209848
  0.0429543378203191  0.5432555564477575  0.7500098508572390
  0.9569242840786329  0.4572588620094600  0.2500218670265365
 
  0.00000000E+00  0.00000000E+00  0.00000000E+00
  0.00000000E+00  0.00000000E+00  0.00000000E+00
  0.00000000E+00  0.00000000E+00  0.00000000E+00
  0.00000000E+00  0.00000000E+00  0.00000000E+00
