Fe2 As2
   1.00000000000000     
     3.7499601813955574   -0.0015460581775597   -0.0049112686327302
    -1.8763169322927071    3.2490667842816086    0.0076383909144571
    -0.0076571461767055    0.0092340489339119    5.8038772338612921
   Fe   As
     2     2
Direct
  0.0004134090655512  0.0002305403348544  0.9999167753169189
  0.0004099625411413  0.0002361472704280  0.4999180202041771
  0.3341118434761512  0.6672630364191718  0.2497731367294804
  0.6665351049171520  0.3330420659755475  0.7498295877494456
 
  0.00000000E+00  0.00000000E+00  0.00000000E+00
  0.00000000E+00  0.00000000E+00  0.00000000E+00
  0.00000000E+00  0.00000000E+00  0.00000000E+00
  0.00000000E+00  0.00000000E+00  0.00000000E+00
