Fe2 S2
   1.00000000000000     
     3.4083799843791232   -0.4822796789630961    0.4371332611365390
    -0.7639404678711207    3.3691297915549674    0.3540874655503560
     0.6234822640094982    0.7898325530423733    5.9530102151559179
   Fe   S 
     2     2
Direct
  0.9998596433638653  0.0001509364132862  0.0003499835891243
  0.4999587717087681  0.5000540773957949  0.5003819238238112
  0.4202874114171161  0.0770757078442529  0.2508567027445396
  0.5789030735102574  0.9227610683466705  0.7499959898425259
 
  0.00000000E+00  0.00000000E+00  0.00000000E+00
  0.00000000E+00  0.00000000E+00  0.00000000E+00
  0.00000000E+00  0.00000000E+00  0.00000000E+00
  0.00000000E+00  0.00000000E+00  0.00000000E+00
