Ni2 S2
   1.00000000000000     
     3.5171003029047698    0.0000000000000000    0.0000000000000000
    -1.7585501514523800    3.0458982099734699    0.0000000000000000
     0.0000000000000000    0.0000000000000000    5.5510695353448698
   Ni   S 
     2     2
Direct
  0.0003613984227329  0.0002104892394286  0.9998682047344900
  0.0003532909473520  0.0002024705390440  0.4998698195079641
  0.3338993643726340  0.6669033115024305  0.2498567324746119
  0.6668562662572697  0.3334555187190986  0.7498427632829561
 
  0.00000000E+00  0.00000000E+00  0.00000000E+00
  0.00000000E+00  0.00000000E+00  0.00000000E+00
  0.00000000E+00  0.00000000E+00  0.00000000E+00
  0.00000000E+00  0.00000000E+00  0.00000000E+00
