CrSb  (Cr2 Sb2)  Fig. 4d  p/d = 0.6, SSE = 1.194 eV   relaxed CONTCAR, from structures/POSCARS.zip as POSCAR_Cr2Sb2_1
1.00000000000000
      4.27382814859471      0.00031091963532     -0.00831168935764
     -2.14268312602305      3.69796343496614      0.00800763754735
     -0.00974559159577      0.00594273926105      5.86139943123666
    Cr    Sb
     2     2
Direct
    0.99990993703233    0.00004044762105    0.99991695083897
    0.99988193809610    0.00000699208169    0.49991880498260
    0.33318412399048    0.66679660920820    0.74975711613993
    0.66670872088108    0.33319553108906    0.24986190803851
