CuO  (Cu2 O2)  Fig. 3d  MSBI = 1.018,  SSE = 1.634 eV   relaxed CONTCAR, from structures/POSCARS.zip as POSCAR_Cu2O2_1_st950
0.95000000000000
      2.90337118418110      0.00084074555712      0.06345747181619
     -0.24823446698090      2.89290134059123     -0.03246083899258
     -0.01679139167241      0.00193490514728      5.18723390321744
    Cu     O
     2     2
Direct
    0.99976243467345    0.99998403369139    0.00042343032572
    0.49966126979957    0.49999371457422    0.50040181527422
    0.49052715984539    0.99424331329438    0.25041422747287
    0.50905803568160    0.00582072844002    0.75034512692719
