FeSi  (Fe2 Si2)  Fig. 3e  MSBI = 0.0003, SSE = 0.003 eV   relaxed CONTCAR, from structures/POSCARS.zip as POSCAR_Fe2Si2_4_y950
1.00000000000000
      3.14744593220000     -0.00008645870000     -0.00056487710000
      0.00008889770000      2.99101383210000     -0.00018257120000
      0.00091581680000      0.00032159300000      5.11997612730000
    Fe    Si
     2     2
Direct
    0.99968112215059    0.00013461342677    0.99900443466624
    0.49975361702019    0.50009164075198    0.31118614405846
    0.99989801118483    0.00005606976244    0.50726881824862
    0.49961816964439    0.50018621605882    0.80312454302668
