VO  (V2 O2)  Fig. 4c  p/d = 1,   SSE = 0.165 eV   relaxed CONTCAR, from structures/POSCARS.zip as POSCAR_O2V2_3
1.00000000000000
      3.10065907464832     -0.00251893676253      0.00160698038723
     -1.54665565474444      2.68972065605828     -0.00192497074923
     -0.00229748713127      0.00187969763991      5.29321378446927
     V     O
     2     2
Direct
    0.99994876057052    0.00001958726358    0.00010200468467
    0.99993338574600    0.00008327378334    0.50010316502689
    0.33321041733516    0.66602796055442    0.75009480091261
    0.66665796634832    0.33405562839867    0.25010251937582
